000 -99 -99 -99 -99 -99 -99 -99 -99 -99 -99 -99 -99 000 000 -99 -99 -99 000 000 000 000 -99 000 000 000 000 -99 -99 -99 -99
000 -99 000 000 000 000 000 000 -99 -99 -99 -99 -99 000 000 000 -99 -99 -99 000 000 000 000 000 000 000 000 000 -99 -99 -99
000 -99 000 000 000 000 000 000 000 -99 -99 -99 -99 -99 000 000 -99 -99 -99 -99 000 000 000 000 000 000 000 000 -99 -99 -99
000 000 000 000 000 000 000 000 000 -99 -99 -99 000 -99 -99 000 -99 -99 -99 -99 000 000 000 000 000 000 000 000 000 -99 000
000 -99 000 000 000 000 000 000 000 -99 -99 000 000 -99 -99 -99 -99 -99 -99 -99 000 002 002 002 001 002 001 000 -99 -99 000
000 000 000 000 000 000 000 000 000 000 -99 000 000 000 000 000 -99 -99 -99 -99 000 002 002 005 002 004 002 000 -99 -99 000
000 000 -99 000 000 000 000 000 000 000 000 000 000 000 000 000 000 000 -99 -99 000 001 001 003 003 004 007 004 -99 -99 001
000 000 000 000 000 000 000 000 000 000 -99 000 000 000 000 000 000 000 -99 -99 000 000 000 000 002 001 006 004 000 000 000
000 000 000 000 000 000 000 000 000 000 000 000 000 000 000 000 000 000 -99 -99 000 000 000 000 000 001 000 001 000 000 000
000 000 000 000 000 000 000 000 000 000 000 000 000 -99 000 000 000 000 -99 000 000 000 -99 -99 000 000 000 000 001 000 000
000 000 000 000 000 000 000 000 000 000 000 000 000 000 -99 000 -99 -99 000 000 000 000 -99 -99 000 -99 000 000 001 000 000
000 000 000 000 000 000 000 000 000 000 000 000 000 000 -99 000 000 -99 000 000 000 000 -99 000 000 -99 000 000 001 000 000
000 000 000 001 000 000 000 000 000 000 000 000 -99 -99 -99 000 000 000 000 000 -99 000 -99 -99 000 000 000 000 000 000 001
000 000 000 000 000 000 000 000 000 000 -99 000 -99 -99 -99 -99 000 000 000 -99 -99 000 -99 000 000 000 -99 000 000 000 001
000 000 000 000 000 000 000 000 000 000 -99 -99 -99 000 -99 -99 000 000 000 -99 -99 000 -99 000 000 000 000 000 000 000 003
000 000 000 000 000 000 000 000 000 000 -99 -99 -99 000 -99 -99 -99 000 000 -99 -99 000 -99 000 000 000 000 000 000 000 001
000 000 000 000 000 000 000 000 000 000 000 -99 -99 000 000 -99 000 000 000 -99 -99 -99 000 000 000 000 000 000 000 000 000
000 000 000 000 000 000 000 000 000 000 000 -99 -99 000 000 -99 000 000 -99 -99 -99 000 000 000 000 000 000 000 000 000 -99
000 000 000 000 -99 000 000 000 000 000 000 000 -99 000 000 -99 000 000 -99 -99 -99 000 000 000 000 000 000 -99 -99 000 -99
000 000 000 000 000 -99 000 000 000 000 000 000 -99 -99 000 -99 000 000 -99 -99 -99 000 000 -99 -99 000 -99 -99 -99 000 -99
000 000 000 000 000 000 -99 000 -99 000 000 000 -99 -99 -99 -99 000 000 000 000 000 000 000 -99 -99 -99 000 -99 -99 -99 -99
000 000 000 000 000 000 000 000 -99 000 000 000 -99 -99 000 000 000 000 000 000 000 000 000 -99 -99 -99 -99 -99 -99 -99 -99
000 000 000 000 000 000 000 000 000 000 000 -99 -99 000 000 000 000 000 000 000 000 000 000 -99 -99 -99 -99 -99 -99 -99 -99
000 000 000 000 000 000 000 000 -99 000 -99 -99 000 000 000 000 000 000 000 000 000 000 000 -99 -99 -99 -99 -99 -99 -99 -99
000 000 000 000 000 000 000 -99 -99 -99 -99 -99 000 000 000 000 000 000 000 000 000 000 000 -99 -99 -99 -99 -99 -99 -99 -99
000 000 000 000 000 000 000 000 -99 -99 -99 -99 -99 000 000 000 000 000 000 000 000 000 000 -99 -99 -99 -99 -99 -99 -99 000
000 000 000 000 000 000 000 000 -99 -99 -99 -99 -99 000 000 000 000 000 000 000 000 000 000 -99 -99 -99 -99 -99 -99 -99 -99
000 000 000 000 000 000 000 000 -99 -99 -99 -99 -99 000 000 000 000 000 000 -99 000 000 -99 -99 -99 -99 -99 -99 -99 000 000
000 000 000 000 000 000 000 000 000 000 -99 -99 -99 -99 000 -99 000 000 -99 -99 000 000 -99 -99 -99 -99 -99 -99 -99 000 000
000 000 000 000 000 000 000 000 000 000 -99 -99 -99 000 000 -99 000 000 000 000 000 000 -99 -99 -99 -99 -99 -99 -99 -99 -99
000 000 000 000 000 000 000 000 000 000 000 -99 -99 -99 -99 -99 000 000 000 000 000 000 -99 -99 -99 -99 -99 -99 -99 -99 -99
000 000 000 000 000 000 000 000 000 -99 -99 -99 -99 -99 -99 -99 000 000 000 -99 000 000 -99 -99 -99 -99 -99 -99 -99 -99 -99
000 000 000 000 000 000 000 000 000 -99 -99 -99 -99 -99 -99 -99 000 000 000 -99 -99 -99 -99 000 -99 -99 -99 000 000 000 000
000 000 000 000 000 000 000 000 000 -99 -99 -99 -99 000 000 000 000 000 000 -99 000 000 000 000 -99 -99 -99 000 000 000 000
000 000 000 000 000 000 000 000 000 000 -99 -99 -99 000 000 000 000 000 000 000 000 -99 000 000 000 000 000 000 000 000 000
000 000 000 000 000 000 000 000 000 000 -99 -99 -99 000 000 000 000 000 000 000 000 000 000 000 000 000 000 000 000 000 000
000 000 000 000 000 000 000 000 000 000 -99 -99 -99 -99 000 000 000 000 000 000 000 000 000 -99 000 000 000 000 000 000 000
000 000 000 000 000 000 000 000 000 000 -99 -99 -99 -99 000 000 000 000 000 000 000 000 000 000 000 000 000 000 000 000 000
000 000 000 000 -99 -99 000 000 -99 000 -99 -99 -99 000 000 000 000 000 -99 -99 000 000 000 000 000 000 000 000 000 000 000
000 000 000 000 -99 -99 000 -99 -99 -99 -99 000 000 000 000 000 000 000 -99 -99 000 000 000 000 000 000 000 000 000 000 000
000 000 000 000 000 000 000 000 -99 000 000 000 000 000 000 000 000 -99 -99 000 000 000 000 000 000 000 000 -99 -99 000 000
000 000 000 000 000 000 000 000 000 000 000 000 000 000 000 000 -99 -99 -99 000 000 000 000 000 000 000 000 -99 -99 000 000
000 000 000 000 000 000 000 000 000 000 000 000 000 000 000 000 -99 -99 000 000 000 000 000 000 000 000 000 -99 -99 -99 -99
000 000 000 000 000 000 000 000 000 000 000 000 000 000 000 000 000 000 000 000 000 000 000 000 000 000 000 000 000 -99 -99
000 000 000 000 000 000 000 000 000 000 000 000 000 000 000 000 000 000 000 000 000 000 000 000 000 -99 000 000 000 -99 -99
000 000 000 000 000 000 000 000 000 000 000 000 000 000 000 -99 000 000 000 000 000 000 -99 000 000 -99 000 000 000 -99 -99
000 000 000 000 000 000 000 000 000 000 000 000 000 000 -99 -99 -99 000 000 000 000 000 000 000 000 -99 000 000 -99 -99 -99
000 000 000 000 -99 000 000 000 000 000 000 000 000 000 -99 -99 -99 000 000 000 000 000 000 000 000 000 000 000 -99 -99 -99
000 000 000 -99 -99 -99 -99 -99 000 000 000 000 000 000 -99 -99 000 000 000 000 000 000 000 000 000 000 000 000 -99 -99 -99
000 000 000 000 -99 -99 -99 000 000 -99 000 000 000 000 -99 -99 000 000 000 000 000 000 000 000 000 000 000 000 000 -99 -99
000 000 000 000 -99 -99 000 000 000 -99 000 000 000 000 -99 000 000 000 000 000 000 001 000 000 000 000 000 000 000 -99 -99
000 -99 -99 -99 -99 -99 000 000 000 000 000 000 000 000 -99 000 000 000 000 000 000 001 000 000 000 000 000 000 000 000 -99
-99 -99 -99 -99 -99 -99 000 000 -99 000 000 000 000 -99 -99 -99 000 000 000 000 001 000 000 000 000 000 000 000 000 -99 -99
000 000 -99 -99 -99 -99 -99 -99 -99 -99 000 000 -99 -99 -99 000 000 000 000 000 000 000 000 000 000 000 000 000 000 -99 -99
000 000 000 000 000 -99 -99 -99 -99 -99 -99 -99 -99 -99 -99 000 000 000 000 000 000 000 000 001 000 000 000 000 000 -99 000
